50
13949

549 97
386 978
323 872
302 193
242 752
654 818
203 74
427 969
556 508
195 132
12 370
329 922
970 819
36 526
133 855
469 630
388 52
60 624
306 870
853 797
425 112
166 925
789 335
957 446
25 725
641 971
817 533
919 253
712 918
699 477
370 452
445 486
542 652
189 286
92 12
333 996
481 548
175 42
474 59
52 110
750 835
657 931
210 178
944 189
615 322
28 585
762 367
389 21
160 378
710 2
